\ENCODING=ISO-8859-1
\Problem name: GMKP - Concert Technologies

Maximize
 obj: 85 x_1_1 + 52 x_1_2 + 62 x_1_3 + 55 x_1_4 + 90 x_1_5 + 26 x_1_6
      + 96 x_1_7 + 15 x_1_8 + 87 x_1_9 + 20 x_1_10 + 57 x_1_11 + 94 x_1_12
      + 93 x_1_13 + 98 x_1_14 + 31 x_1_15 + 15 x_1_16 + 92 x_1_17 + 29 x_1_18
      + 100 x_1_19 + 56 x_1_20 + 98 x_1_21 + 86 x_1_22 + 16 x_1_23 + 92 x_1_24
      + 61 x_1_25 + 59 x_2_1 + 19 x_2_2 + 71 x_2_3 + 73 x_2_4 + 94 x_2_5
      + 55 x_2_6 + 96 x_2_7 + 66 x_2_8 + 57 x_2_9 + 26 x_2_10 + 62 x_2_11
      + 61 x_2_12 + 11 x_2_13 + 87 x_2_14 + 65 x_2_15 + 71 x_2_16 + 67 x_2_17
      + 40 x_2_18 + 86 x_2_19 + 77 x_2_20 + 38 x_2_21 + 40 x_2_22 + 39 x_2_23
      + 78 x_2_24 + 64 x_2_25
Subject To
 capacity_1:            95 x_1_1 + 48 x_1_2 + 65 x_1_3 + 25 x_1_4 + 71 x_1_5
                        + 11 x_1_6 + 85 x_1_7 + 57 x_1_8 + 12 x_1_9 + 68 x_1_10
                        + 72 x_1_11 + 83 x_1_12 + 46 x_1_13 + 53 x_1_14
                        + 80 x_1_15 + 74 x_1_16 + 22 x_1_17 + 51 x_1_18
                        + 15 x_1_19 + 48 x_1_20 + 10 x_1_21 + 84 x_1_22
                        + 51 x_1_23 + 85 x_1_24 + 81 x_1_25 + 63 y_1_1
                        + 82 y_1_2 + 67 y_1_3 + 97 y_1_4 + 76 y_1_5 <= 696
 capacity_2:            95 x_2_1 + 48 x_2_2 + 65 x_2_3 + 25 x_2_4 + 71 x_2_5
                        + 11 x_2_6 + 85 x_2_7 + 57 x_2_8 + 12 x_2_9 + 68 x_2_10
                        + 72 x_2_11 + 83 x_2_12 + 46 x_2_13 + 53 x_2_14
                        + 80 x_2_15 + 74 x_2_16 + 22 x_2_17 + 51 x_2_18
                        + 15 x_2_19 + 48 x_2_20 + 10 x_2_21 + 84 x_2_22
                        + 51 x_2_23 + 85 x_2_24 + 81 x_2_25 + 63 y_2_1
                        + 82 y_2_2 + 67 y_2_3 + 97 y_2_4 + 76 y_2_5 <= 184
 max_one_bin_x_1:       x_1_1 + x_2_1 <= 1
 max_one_bin_x_2:       x_1_2 + x_2_2 <= 1
 max_one_bin_x_3:       x_1_3 + x_2_3 <= 1
 max_one_bin_x_4:       x_1_4 + x_2_4 <= 1
 max_one_bin_x_5:       x_1_5 + x_2_5 <= 1
 max_one_bin_x_6:       x_1_6 + x_2_6 <= 1
 max_one_bin_x_7:       x_1_7 + x_2_7 <= 1
 max_one_bin_x_8:       x_1_8 + x_2_8 <= 1
 max_one_bin_x_9:       x_1_9 + x_2_9 <= 1
 max_one_bin_x_10:      x_1_10 + x_2_10 <= 1
 max_one_bin_x_11:      x_1_11 + x_2_11 <= 1
 max_one_bin_x_12:      x_1_12 + x_2_12 <= 1
 max_one_bin_x_13:      x_1_13 + x_2_13 <= 1
 max_one_bin_x_14:      x_1_14 + x_2_14 <= 1
 max_one_bin_x_15:      x_1_15 + x_2_15 <= 1
 max_one_bin_x_16:      x_1_16 + x_2_16 <= 1
 max_one_bin_x_17:      x_1_17 + x_2_17 <= 1
 max_one_bin_x_18:      x_1_18 + x_2_18 <= 1
 max_one_bin_x_19:      x_1_19 + x_2_19 <= 1
 max_one_bin_x_20:      x_1_20 + x_2_20 <= 1
 max_one_bin_x_21:      x_1_21 + x_2_21 <= 1
 max_one_bin_x_22:      x_1_22 + x_2_22 <= 1
 max_one_bin_x_23:      x_1_23 + x_2_23 <= 1
 max_one_bin_x_24:      x_1_24 + x_2_24 <= 1
 max_one_bin_x_25:      x_1_25 + x_2_25 <= 1
 max_b_bin_y_1:         y_1_1 + y_2_1 <= 1
 max_b_bin_y_2:         y_1_2 + y_2_2 <= 1
 max_b_bin_y_3:         y_1_3 + y_2_3 <= 2
 max_b_bin_y_4:         y_1_4 + y_2_4 <= 2
 max_b_bin_y_5:         y_1_5 + y_2_5 <= 1
 dependent_decision_1:  x_1_1 + x_1_6 + x_1_7 + x_1_8 + x_1_15 + x_1_16
                        + x_1_20 + x_1_24 - 25 y_1_1 <= 0
 dependent_decision_2:  x_1_2 + x_1_12 + x_1_17 + x_1_25 - 25 y_1_2 <= 0
 dependent_decision_3:  x_1_3 + x_1_21 - 25 y_1_3 <= 0
 dependent_decision_4:  x_1_4 + x_1_14 + x_1_18 + x_1_19 + x_1_22 + x_1_23
                        - 25 y_1_4 <= 0
 dependent_decision_5:  x_1_5 + x_1_9 + x_1_10 + x_1_11 + x_1_13 - 25 y_1_5
                        <= 0
 dependent_decision_6:  x_2_1 + x_2_6 + x_2_7 + x_2_8 + x_2_15 + x_2_16
                        + x_2_20 + x_2_24 - 25 y_2_1 <= 0
 dependent_decision_7:  x_2_2 + x_2_12 + x_2_17 + x_2_25 - 25 y_2_2 <= 0
 dependent_decision_8:  x_2_3 + x_2_21 - 25 y_2_3 <= 0
 dependent_decision_9:  x_2_4 + x_2_14 + x_2_18 + x_2_19 + x_2_22 + x_2_23
                        - 25 y_2_4 <= 0
 dependent_decision_10: x_2_5 + x_2_9 + x_2_10 + x_2_11 + x_2_13 - 25 y_2_5
                        <= 0
Bounds
 0 <= x_1_1 <= 1
 0 <= x_1_2 <= 1
 0 <= x_1_3 <= 1
 0 <= x_1_4 <= 1
 0 <= x_1_5 <= 1
 0 <= x_1_6 <= 1
 0 <= x_1_7 <= 1
 0 <= x_1_8 <= 1
 0 <= x_1_9 <= 1
 0 <= x_1_10 <= 1
 0 <= x_1_11 <= 1
 0 <= x_1_12 <= 1
 0 <= x_1_13 <= 1
 0 <= x_1_14 <= 1
 0 <= x_1_15 <= 1
 0 <= x_1_16 <= 1
 0 <= x_1_17 <= 1
 0 <= x_1_18 <= 1
 0 <= x_1_19 <= 1
 0 <= x_1_20 <= 1
 0 <= x_1_21 <= 1
 0 <= x_1_22 <= 1
 0 <= x_1_23 <= 1
 0 <= x_1_24 <= 1
 0 <= x_1_25 <= 1
 0 <= x_2_1 <= 1
 0 <= x_2_2 <= 1
 0 <= x_2_3 <= 1
 0 <= x_2_4 <= 1
 0 <= x_2_5 <= 1
 0 <= x_2_6 <= 1
 0 <= x_2_7 <= 1
 0 <= x_2_8 <= 1
 0 <= x_2_9 <= 1
 0 <= x_2_10 <= 1
 0 <= x_2_11 <= 1
 0 <= x_2_12 <= 1
 0 <= x_2_13 <= 1
 0 <= x_2_14 <= 1
 0 <= x_2_15 <= 1
 0 <= x_2_16 <= 1
 0 <= x_2_17 <= 1
 0 <= x_2_18 <= 1
 0 <= x_2_19 <= 1
 0 <= x_2_20 <= 1
 0 <= x_2_21 <= 1
 0 <= x_2_22 <= 1
 0 <= x_2_23 <= 1
 0 <= x_2_24 <= 1
 0 <= x_2_25 <= 1
 0 <= y_1_1 <= 1
 0 <= y_1_2 <= 1
 0 <= y_1_3 <= 1
 0 <= y_1_4 <= 1
 0 <= y_1_5 <= 1
 0 <= y_2_1 <= 1
 0 <= y_2_2 <= 1
 0 <= y_2_3 <= 1
 0 <= y_2_4 <= 1
 0 <= y_2_5 <= 1
Binaries
 x_1_1  x_1_2  x_1_3  x_1_4  x_1_5  x_1_6  x_1_7  x_1_8  x_1_9  x_1_10  x_1_11 
 x_1_12  x_1_13  x_1_14  x_1_15  x_1_16  x_1_17  x_1_18  x_1_19  x_1_20 
 x_1_21  x_1_22  x_1_23  x_1_24  x_1_25  x_2_1  x_2_2  x_2_3  x_2_4  x_2_5 
 x_2_6  x_2_7  x_2_8  x_2_9  x_2_10  x_2_11  x_2_12  x_2_13  x_2_14  x_2_15 
 x_2_16  x_2_17  x_2_18  x_2_19  x_2_20  x_2_21  x_2_22  x_2_23  x_2_24 
 x_2_25  y_1_1  y_1_2  y_1_3  y_1_4  y_1_5  y_2_1  y_2_2  y_2_3  y_2_4  y_2_5 
End
